# Solution for model r10_t18_m4_9 Batch Number: 1
# Finished Task: 12 / 18
# Makespan: 610.0, Total Distance: 125.0, Total Time: 4.1586
# R O S F Batch
0 0 -1 0.0 0.0 -1
1 1 -1 0.0 0.0 -1
2 2 27 0.0 0.0 -1
3 3 20 0.0 0.0 -1
4 4 16 0.0 0.0 -1
5 5 -1 0.0 0.0 -1
6 6 14 0.0 0.0 -1
7 7 -1 0.0 0.0 -1
8 8 25 0.0 0.0 -1
9 9 -1 0.0 0.0 -1
10 -1 -1 -1.0 -1.0 0
11 -1 -1 -1.0 -1.0 0
12 -1 -1 -1.0 -1.0 0
13 -1 -1 -1.0 -1.0 0
14 6 24 496.0 521.0 0
15 3 -1 521.0 552.0 0
16 4 22 239.0 277.0 0
17 4 -1 427.0 462.0 0
18 2 26 442.0 476.0 0
19 -1 -1 -1.0 -1.0 0
20 3 15 476.0 515.0 0
21 -1 -1 -1.0 -1.0 0
22 4 17 298.0 324.0 0
23 8 -1 533.0 558.0 0
24 6 -1 576.0 610.0 0
25 8 23 500.0 521.0 0
26 2 -1 552.0 576.0 0
27 2 18 345.0 374.0 0
